0	5	11	8	12	7	8	12	2	12	12	5	4
5	0	9	6	11	7	4	12	3	12	12	6	3
11	9	0	3	2	5	4	6	10	4	4	11	7
8	6	3	0	5	4	2	8	7	6	6	9	5
12	11	2	5	0	6	6	6	12	3	3	13	10
7	7	5	4	6	0	4	6	6	6	6	8	5
8	4	4	2	6	4	0	9	7	8	8	9	4
12	12	6	8	6	6	9	0	12	4	4	13	11
2	3	10	7	12	6	7	12	0	11	11	3	3
12	12	4	6	3	6	8	4	11	0	1	12	10
12	12	4	6	3	6	8	5	11	1	0	12	10
5	6	11	9	13	8	9	13	3	12	12	0	6
5	3	7	5	10	5	4	11	3	10	10	6	0
30	45	45	45	30	30	45	15	45	30	15	30	100
9	8	7	5	3	7	3	4	7	6	3	7	10